c description: Tseitin formula on , with even charge
c generator: CNFgen (0.9.0)
c copyright: (C) 2012-2020 Massimo Lauria <massimo.lauria@uniroma1.it>
c url: https://massimolauria.net/cnfgen
c
p cnf 30 336
1 2 3 4 5 -6 0
1 2 3 4 -5 6 0
1 2 3 -4 5 6 0
1 2 3 -4 -5 -6 0
1 2 -3 4 5 6 0
1 2 -3 4 -5 -6 0
1 2 -3 -4 5 -6 0
1 2 -3 -4 -5 6 0
1 -2 3 4 5 6 0
1 -2 3 4 -5 -6 0
1 -2 3 -4 5 -6 0
1 -2 3 -4 -5 6 0
1 -2 -3 4 5 -6 0
1 -2 -3 4 -5 6 0
1 -2 -3 -4 5 6 0
1 -2 -3 -4 -5 -6 0
-1 2 3 4 5 6 0
-1 2 3 4 -5 -6 0
-1 2 3 -4 5 -6 0
-1 2 3 -4 -5 6 0
-1 2 -3 4 5 -6 0
-1 2 -3 4 -5 6 0
-1 2 -3 -4 5 6 0
-1 2 -3 -4 -5 -6 0
-1 -2 3 4 5 -6 0
-1 -2 3 4 -5 6 0
-1 -2 3 -4 5 6 0
-1 -2 3 -4 -5 -6 0
-1 -2 -3 4 5 6 0
-1 -2 -3 4 -5 -6 0
-1 -2 -3 -4 5 -6 0
-1 -2 -3 -4 -5 6 0
1 7 8 9 10 -11 0
1 7 8 9 -10 11 0
1 7 8 -9 10 11 0
1 7 8 -9 -10 -11 0
1 7 -8 9 10 11 0
1 7 -8 9 -10 -11 0
1 7 -8 -9 10 -11 0
1 7 -8 -9 -10 11 0
1 -7 8 9 10 11 0
1 -7 8 9 -10 -11 0
1 -7 8 -9 10 -11 0
1 -7 8 -9 -10 11 0
1 -7 -8 9 10 -11 0
1 -7 -8 9 -10 11 0
1 -7 -8 -9 10 11 0
1 -7 -8 -9 -10 -11 0
-1 7 8 9 10 11 0
-1 7 8 9 -10 -11 0
-1 7 8 -9 10 -11 0
-1 7 8 -9 -10 11 0
-1 7 -8 9 10 -11 0
-1 7 -8 9 -10 11 0
-1 7 -8 -9 10 11 0
-1 7 -8 -9 -10 -11 0
-1 -7 8 9 10 -11 0
-1 -7 8 9 -10 11 0
-1 -7 8 -9 10 11 0
-1 -7 8 -9 -10 -11 0
-1 -7 -8 9 10 11 0
-1 -7 -8 9 -10 -11 0
-1 -7 -8 -9 10 -11 0
-1 -7 -8 -9 -10 11 0
2 12 13 14 15 16 -17 0
2 12 13 14 15 -16 17 0
2 12 13 14 -15 16 17 0
2 12 13 14 -15 -16 -17 0
2 12 13 -14 15 16 17 0
2 12 13 -14 15 -16 -17 0
2 12 13 -14 -15 16 -17 0
2 12 13 -14 -15 -16 17 0
2 12 -13 14 15 16 17 0
2 12 -13 14 15 -16 -17 0
2 12 -13 14 -15 16 -17 0
2 12 -13 14 -15 -16 17 0
2 12 -13 -14 15 16 -17 0
2 12 -13 -14 15 -16 17 0
2 12 -13 -14 -15 16 17 0
2 12 -13 -14 -15 -16 -17 0
2 -12 13 14 15 16 17 0
2 -12 13 14 15 -16 -17 0
2 -12 13 14 -15 16 -17 0
2 -12 13 14 -15 -16 17 0
2 -12 13 -14 15 16 -17 0
2 -12 13 -14 15 -16 17 0
2 -12 13 -14 -15 16 17 0
2 -12 13 -14 -15 -16 -17 0
2 -12 -13 14 15 16 -17 0
2 -12 -13 14 15 -16 17 0
2 -12 -13 14 -15 16 17 0
2 -12 -13 14 -15 -16 -17 0
2 -12 -13 -14 15 16 17 0
2 -12 -13 -14 15 -16 -17 0
2 -12 -13 -14 -15 16 -17 0
2 -12 -13 -14 -15 -16 17 0
-2 12 13 14 15 16 17 0
-2 12 13 14 15 -16 -17 0
-2 12 13 14 -15 16 -17 0
-2 12 13 14 -15 -16 17 0
-2 12 13 -14 15 16 -17 0
-2 12 13 -14 15 -16 17 0
-2 12 13 -14 -15 16 17 0
-2 12 13 -14 -15 -16 -17 0
-2 12 -13 14 15 16 -17 0
-2 12 -13 14 15 -16 17 0
-2 12 -13 14 -15 16 17 0
-2 12 -13 14 -15 -16 -17 0
-2 12 -13 -14 15 16 17 0
-2 12 -13 -14 15 -16 -17 0
-2 12 -13 -14 -15 16 -17 0
-2 12 -13 -14 -15 -16 17 0
-2 -12 13 14 15 16 -17 0
-2 -12 13 14 15 -16 17 0
-2 -12 13 14 -15 16 17 0
-2 -12 13 14 -15 -16 -17 0
-2 -12 13 -14 15 16 17 0
-2 -12 13 -14 15 -16 -17 0
-2 -12 13 -14 -15 16 -17 0
-2 -12 13 -14 -15 -16 17 0
-2 -12 -13 14 15 16 17 0
-2 -12 -13 14 15 -16 -17 0
-2 -12 -13 14 -15 16 -17 0
-2 -12 -13 14 -15 -16 17 0
-2 -12 -13 -14 15 16 -17 0
-2 -12 -13 -14 15 -16 17 0
-2 -12 -13 -14 -15 16 17 0
-2 -12 -13 -14 -15 -16 -17 0
3 12 18 19 20 -21 0
3 12 18 19 -20 21 0
3 12 18 -19 20 21 0
3 12 18 -19 -20 -21 0
3 12 -18 19 20 21 0
3 12 -18 19 -20 -21 0
3 12 -18 -19 20 -21 0
3 12 -18 -19 -20 21 0
3 -12 18 19 20 21 0
3 -12 18 19 -20 -21 0
3 -12 18 -19 20 -21 0
3 -12 18 -19 -20 21 0
3 -12 -18 19 20 -21 0
3 -12 -18 19 -20 21 0
3 -12 -18 -19 20 21 0
3 -12 -18 -19 -20 -21 0
-3 12 18 19 20 21 0
-3 12 18 19 -20 -21 0
-3 12 18 -19 20 -21 0
-3 12 18 -19 -20 21 0
-3 12 -18 19 20 -21 0
-3 12 -18 19 -20 21 0
-3 12 -18 -19 20 21 0
-3 12 -18 -19 -20 -21 0
-3 -12 18 19 20 -21 0
-3 -12 18 19 -20 21 0
-3 -12 18 -19 20 21 0
-3 -12 18 -19 -20 -21 0
-3 -12 -18 19 20 21 0
-3 -12 -18 19 -20 -21 0
-3 -12 -18 -19 20 -21 0
-3 -12 -18 -19 -20 21 0
7 13 18 22 23 -24 0
7 13 18 22 -23 24 0
7 13 18 -22 23 24 0
7 13 18 -22 -23 -24 0
7 13 -18 22 23 24 0
7 13 -18 22 -23 -24 0
7 13 -18 -22 23 -24 0
7 13 -18 -22 -23 24 0
7 -13 18 22 23 24 0
7 -13 18 22 -23 -24 0
7 -13 18 -22 23 -24 0
7 -13 18 -22 -23 24 0
7 -13 -18 22 23 -24 0
7 -13 -18 22 -23 24 0
7 -13 -18 -22 23 24 0
7 -13 -18 -22 -23 -24 0
-7 13 18 22 23 24 0
-7 13 18 22 -23 -24 0
-7 13 18 -22 23 -24 0
-7 13 18 -22 -23 24 0
-7 13 -18 22 23 -24 0
-7 13 -18 22 -23 24 0
-7 13 -18 -22 23 24 0
-7 13 -18 -22 -23 -24 0
-7 -13 18 22 23 -24 0
-7 -13 18 22 -23 24 0
-7 -13 18 -22 23 24 0
-7 -13 18 -22 -23 -24 0
-7 -13 -18 22 23 24 0
-7 -13 -18 22 -23 -24 0
-7 -13 -18 -22 23 -24 0
-7 -13 -18 -22 -23 24 0
8 14 22 25 26 -27 0
8 14 22 25 -26 27 0
8 14 22 -25 26 27 0
8 14 22 -25 -26 -27 0
8 14 -22 25 26 27 0
8 14 -22 25 -26 -27 0
8 14 -22 -25 26 -27 0
8 14 -22 -25 -26 27 0
8 -14 22 25 26 27 0
8 -14 22 25 -26 -27 0
8 -14 22 -25 26 -27 0
8 -14 22 -25 -26 27 0
8 -14 -22 25 26 -27 0
8 -14 -22 25 -26 27 0
8 -14 -22 -25 26 27 0
8 -14 -22 -25 -26 -27 0
-8 14 22 25 26 27 0
-8 14 22 25 -26 -27 0
-8 14 22 -25 26 -27 0
-8 14 22 -25 -26 27 0
-8 14 -22 25 26 -27 0
-8 14 -22 25 -26 27 0
-8 14 -22 -25 26 27 0
-8 14 -22 -25 -26 -27 0
-8 -14 22 25 26 -27 0
-8 -14 22 25 -26 27 0
-8 -14 22 -25 26 27 0
-8 -14 22 -25 -26 -27 0
-8 -14 -22 25 26 27 0
-8 -14 -22 25 -26 -27 0
-8 -14 -22 -25 26 -27 0
-8 -14 -22 -25 -26 27 0
4 9 23 25 28 -29 0
4 9 23 25 -28 29 0
4 9 23 -25 28 29 0
4 9 23 -25 -28 -29 0
4 9 -23 25 28 29 0
4 9 -23 25 -28 -29 0
4 9 -23 -25 28 -29 0
4 9 -23 -25 -28 29 0
4 -9 23 25 28 29 0
4 -9 23 25 -28 -29 0
4 -9 23 -25 28 -29 0
4 -9 23 -25 -28 29 0
4 -9 -23 25 28 -29 0
4 -9 -23 25 -28 29 0
4 -9 -23 -25 28 29 0
4 -9 -23 -25 -28 -29 0
-4 9 23 25 28 29 0
-4 9 23 25 -28 -29 0
-4 9 23 -25 28 -29 0
-4 9 23 -25 -28 29 0
-4 9 -23 25 28 -29 0
-4 9 -23 25 -28 29 0
-4 9 -23 -25 28 29 0
-4 9 -23 -25 -28 -29 0
-4 -9 23 25 28 -29 0
-4 -9 23 25 -28 29 0
-4 -9 23 -25 28 29 0
-4 -9 23 -25 -28 -29 0
-4 -9 -23 25 28 29 0
-4 -9 -23 25 -28 -29 0
-4 -9 -23 -25 28 -29 0
-4 -9 -23 -25 -28 29 0
5 15 19 24 26 -30 0
5 15 19 24 -26 30 0
5 15 19 -24 26 30 0
5 15 19 -24 -26 -30 0
5 15 -19 24 26 30 0
5 15 -19 24 -26 -30 0
5 15 -19 -24 26 -30 0
5 15 -19 -24 -26 30 0
5 -15 19 24 26 30 0
5 -15 19 24 -26 -30 0
5 -15 19 -24 26 -30 0
5 -15 19 -24 -26 30 0
5 -15 -19 24 26 -30 0
5 -15 -19 24 -26 30 0
5 -15 -19 -24 26 30 0
5 -15 -19 -24 -26 -30 0
-5 15 19 24 26 30 0
-5 15 19 24 -26 -30 0
-5 15 19 -24 26 -30 0
-5 15 19 -24 -26 30 0
-5 15 -19 24 26 -30 0
-5 15 -19 24 -26 30 0
-5 15 -19 -24 26 30 0
-5 15 -19 -24 -26 -30 0
-5 -15 19 24 26 -30 0
-5 -15 19 24 -26 30 0
-5 -15 19 -24 26 30 0
-5 -15 19 -24 -26 -30 0
-5 -15 -19 24 26 30 0
-5 -15 -19 24 -26 -30 0
-5 -15 -19 -24 26 -30 0
-5 -15 -19 -24 -26 30 0
10 16 20 27 28 -30 0
10 16 20 27 -28 30 0
10 16 20 -27 28 30 0
10 16 20 -27 -28 -30 0
10 16 -20 27 28 30 0
10 16 -20 27 -28 -30 0
10 16 -20 -27 28 -30 0
10 16 -20 -27 -28 30 0
10 -16 20 27 28 30 0
10 -16 20 27 -28 -30 0
10 -16 20 -27 28 -30 0
10 -16 20 -27 -28 30 0
10 -16 -20 27 28 -30 0
10 -16 -20 27 -28 30 0
10 -16 -20 -27 28 30 0
10 -16 -20 -27 -28 -30 0
-10 16 20 27 28 30 0
-10 16 20 27 -28 -30 0
-10 16 20 -27 28 -30 0
-10 16 20 -27 -28 30 0
-10 16 -20 27 28 -30 0
-10 16 -20 27 -28 30 0
-10 16 -20 -27 28 30 0
-10 16 -20 -27 -28 -30 0
-10 -16 20 27 28 -30 0
-10 -16 20 27 -28 30 0
-10 -16 20 -27 28 30 0
-10 -16 20 -27 -28 -30 0
-10 -16 -20 27 28 30 0
-10 -16 -20 27 -28 -30 0
-10 -16 -20 -27 28 -30 0
-10 -16 -20 -27 -28 30 0
6 11 17 21 -29 0
6 11 17 -21 29 0
6 11 -17 21 29 0
6 11 -17 -21 -29 0
6 -11 17 21 29 0
6 -11 17 -21 -29 0
6 -11 -17 21 -29 0
6 -11 -17 -21 29 0
-6 11 17 21 29 0
-6 11 17 -21 -29 0
-6 11 -17 21 -29 0
-6 11 -17 -21 29 0
-6 -11 17 21 -29 0
-6 -11 17 -21 29 0
-6 -11 -17 21 29 0
-6 -11 -17 -21 -29 0